language ESSENCE' 1.0

letting jobs = 102
letting horizon = 777
letting resourcesRenew = 2
letting resourcesNonrenew = 2
letting resourceLimits = [44, 47, 520, 501]
letting successors = [[2, 3, 4, 5, 6, 7, 8, 9, 10, 11, 12, 13, 15, 16, 19, 21, 25, 27, 31], [43, 41, 40, 36, 34, 29, 28, 26, 24, 18, 17, 14], [49, 43, 40, 38, 37, 34, 32, 26, 17, 14], [63, 53, 49, 46, 45, 43, 42, 41, 38, 37, 36, 23, 17], [63, 53, 47, 43, 38, 34, 30, 29, 26, 22], [64, 57, 53, 52, 50, 48, 47, 43, 42, 41, 39, 38, 35, 34, 33], [51, 50, 47, 43, 40, 38, 36, 26, 20], [52, 47, 38, 36, 28, 14], [62, 59, 52, 45, 43, 33, 30, 20], [67, 64, 63, 49, 48, 36, 28, 23], [64, 63, 55, 51, 45, 43, 38, 37, 35, 30], [80, 67, 64, 63, 62, 57, 56, 55, 47, 46, 44, 42, 40, 39], [64, 63, 57, 56, 50, 46, 43, 42, 38, 37], [64, 63, 58, 57, 55, 54, 50, 45, 44, 39, 35], [80, 62, 58, 57, 55, 52, 51, 50, 47, 40, 35], [80, 67, 64, 62, 56, 55, 52, 50, 46, 44, 42, 40, 39], [80, 66, 62, 57, 56, 55, 54, 52, 51, 50, 48, 47, 44], [67, 64, 63, 62, 59, 57, 56, 55, 54, 48, 44, 39], [67, 64, 62, 56, 55, 54, 39, 36], [64, 63, 57, 54, 49, 44, 39, 34], [80, 67, 64, 62, 55, 54, 47, 37], [67, 66, 51, 42, 40, 36], [62, 52, 51, 44, 30], [80, 69, 67, 64, 62, 61, 58, 57, 56, 54, 50, 47], [69, 67, 66, 62, 57, 56, 52, 50, 47, 46], [80, 62, 59, 56, 55, 54, 48, 44, 42], [72, 67, 62, 59, 57, 51, 46, 44, 42], [101, 80, 79, 62, 61, 59, 57, 55, 54, 42], [80, 72, 69, 66, 64, 62, 58, 54, 51, 46, 44], [100, 80, 61, 58, 50, 40, 39], [101, 100, 74, 67, 64, 61, 59, 57, 55, 54, 50], [101, 80, 79, 74, 73, 70, 62, 59, 58, 57, 56, 55], [74, 68, 67, 66, 63, 55, 44], [101, 100, 80, 79, 74, 70, 68, 66, 65, 61, 60, 56, 55], [72, 71, 68, 67, 66, 61, 59, 56, 46], [95, 80, 78, 74, 72, 59, 57, 44], [78, 74, 71, 68, 66, 59, 58, 44], [99, 80, 79, 78, 75, 74, 68, 65, 62, 61, 54], [101, 95, 78, 73, 72, 71, 70, 68, 66, 65, 60], [101, 99, 94, 90, 78, 75, 74, 69, 65, 54], [100, 98, 95, 92, 80, 79, 75, 74, 72, 68, 66, 65, 61], [100, 99, 98, 97, 96, 78, 74, 73, 71, 69, 68, 58], [99, 98, 96, 95, 92, 79, 74, 73, 71, 70, 68, 67, 65], [101, 100, 98, 94, 79, 75, 70, 65, 61, 60], [101, 95, 80, 79, 73, 71, 68, 65, 60], [101, 100, 98, 95, 94, 91, 90, 75, 74, 70, 65, 60], [98, 95, 94, 90, 78, 76, 74, 73, 72, 71, 65, 59], [101, 100, 98, 74, 72, 71, 70, 69, 61], [101, 99, 98, 97, 96, 94, 90, 89, 86, 85, 79, 78, 77, 76, 74, 73], [98, 97, 96, 95, 94, 92, 91, 90, 86, 79, 78, 76, 75, 72, 65], [98, 97, 95, 92, 89, 78, 77, 75, 74, 61], [96, 95, 94, 92, 89, 77, 76, 75, 61], [100, 98, 95, 94, 92, 90, 88, 86, 85, 83, 77, 75, 74, 73], [98, 88, 73, 70, 60], [96, 94, 90, 87, 86, 78, 75, 72, 69], [98, 97, 95, 94, 91, 87, 86, 84, 83, 78, 77, 76, 75], [99, 96, 91, 89, 84, 83, 75, 68], [95, 94, 92, 90, 86, 85, 65], [96, 93, 92, 91, 89, 88, 85, 84, 83, 77, 75], [97, 96, 93, 92, 89, 87, 86, 83, 77, 76], [93, 90, 88, 86, 85, 83, 82, 73], [100, 96, 95, 94, 91, 90, 87, 85, 77], [97, 93, 92, 91, 89, 77, 75], [96, 94, 90, 87, 86, 84, 83, 81], [89, 88, 87, 84, 83, 82, 77], [99, 97, 88, 87, 85, 83, 82], [97, 93, 90, 86, 84, 82, 81], [94, 90, 86, 85, 77], [95, 92, 89, 88, 81], [89, 85, 84, 77], [86, 84, 75], [85, 83, 82, 81], [91, 87, 84], [93, 84, 82], [82, 81], [82, 81], [81], [88], [83], [85], [102], [102], [102], [102], [102], [102], [102], [102], [102], [102], [102], [102], [102], [102], [102], [102], [102], [102], [102], [102], [102], []]
letting durations = [[0], [4, 6, 7], [7, 9, 10], [2, 5, 9], [3, 7, 10], [1, 6, 9], [1, 3, 5], [5, 6, 10], [2, 8, 10], [4, 5, 6], [8, 9, 10], [1, 2, 5], [1, 2, 3], [7, 8, 9], [1, 9, 10], [2, 3, 10], [1, 3, 7], [2, 3, 4], [5, 6, 7], [2, 3, 8], [1, 6, 7], [1, 6, 9], [3, 8, 10], [2, 3, 4], [3, 5, 7], [5, 7, 8], [1, 5, 8], [1, 8, 9], [1, 4, 5], [2, 9, 10], [3, 8, 10], [1, 7, 9], [2, 9, 10], [4, 5, 9], [1, 2, 3], [7, 8, 9], [3, 4, 5], [1, 2, 4], [2, 8, 10], [1, 3, 8], [1, 5, 6], [2, 5, 8], [5, 6, 10], [4, 7, 10], [3, 4, 10], [4, 7, 8], [1, 9, 10], [2, 3, 9], [3, 4, 7], [1, 4, 7], [1, 4, 9], [6, 7, 8], [4, 6, 8], [4, 5, 7], [1, 8, 9], [1, 6, 9], [2, 3, 4], [3, 4, 5], [4, 6, 7], [2, 6, 9], [7, 8, 9], [5, 6, 9], [2, 6, 7], [4, 5, 6], [3, 4, 5], [2, 6, 7], [5, 6, 9], [2, 3, 5], [4, 6, 7], [1, 4, 6], [2, 6, 7], [8, 9, 10], [2, 9, 10], [1, 7, 10], [2, 3, 4], [2, 4, 9], [1, 5, 7], [3, 4, 9], [1, 4, 5], [3, 6, 8], [3, 4, 8], [4, 9, 10], [3, 7, 9], [3, 5, 7], [4, 5, 6], [3, 5, 10], [5, 6, 9], [2, 3, 4], [3, 9, 10], [3, 8, 10], [2, 3, 10], [4, 5, 6], [3, 4, 7], [6, 7, 10], [2, 6, 7], [2, 5, 8], [2, 5, 7], [3, 4, 5], [6, 7, 8], [7, 8, 10], [1, 2, 4], [0]]
letting resourceUsage = [[[0, 0, 0, 0]], [[1, 5, 10, 8], [1, 4, 9, 7], [1, 3, 9, 6]], [[3, 2, 6, 9], [2, 2, 5, 7], [1, 2, 5, 7]], [[4, 1, 8, 5], [4, 1, 6, 5], [4, 1, 6, 3]], [[1, 2, 8, 7], [1, 2, 6, 6], [1, 2, 4, 4]], [[5, 5, 9, 9], [2, 4, 7, 8], [1, 4, 7, 7]], [[4, 3, 8, 8], [4, 2, 8, 7], [2, 1, 8, 7]], [[5, 1, 3, 5], [5, 1, 2, 5], [5, 1, 2, 4]], [[2, 4, 5, 9], [2, 3, 5, 8], [2, 2, 2, 8]], [[4, 3, 5, 7], [4, 2, 4, 7], [4, 2, 4, 6]], [[1, 1, 7, 8], [1, 1, 5, 7], [1, 1, 4, 7]], [[4, 4, 10, 3], [4, 4, 8, 1], [3, 2, 7, 1]], [[2, 5, 10, 4], [1, 3, 7, 3], [1, 3, 6, 3]], [[2, 2, 9, 10], [2, 1, 6, 8], [2, 1, 3, 8]], [[1, 4, 6, 6], [1, 4, 5, 5], [1, 4, 4, 4]], [[3, 3, 9, 6], [3, 3, 5, 5], [3, 3, 5, 2]], [[2, 4, 2, 6], [1, 3, 1, 6], [1, 3, 1, 5]], [[1, 2, 7, 3], [1, 1, 7, 2], [1, 1, 6, 2]], [[3, 1, 4, 8], [3, 1, 4, 6], [1, 1, 3, 6]], [[5, 4, 5, 3], [5, 3, 4, 3], [5, 2, 2, 1]], [[5, 3, 6, 1], [4, 2, 5, 1], [2, 2, 5, 1]], [[2, 4, 4, 10], [2, 4, 4, 9], [2, 4, 2, 7]], [[3, 4, 9, 7], [2, 3, 6, 7], [1, 3, 6, 7]], [[3, 5, 4, 7], [3, 3, 4, 6], [3, 3, 3, 6]], [[4, 5, 9, 7], [4, 3, 7, 6], [2, 3, 4, 4]], [[3, 3, 5, 9], [3, 2, 4, 8], [1, 2, 2, 4]], [[3, 5, 7, 5], [3, 2, 5, 3], [2, 2, 4, 2]], [[3, 4, 5, 6], [1, 4, 5, 5], [1, 3, 5, 5]], [[3, 5, 1, 4], [2, 4, 1, 4], [2, 3, 1, 3]], [[4, 3, 8, 6], [4, 2, 7, 4], [4, 2, 7, 2]], [[2, 4, 7, 10], [2, 3, 4, 7], [2, 3, 2, 4]], [[4, 3, 9, 8], [4, 2, 7, 7], [4, 1, 7, 6]], [[4, 5, 7, 7], [3, 4, 5, 5], [3, 2, 4, 3]], [[3, 3, 1, 10], [3, 2, 1, 9], [3, 2, 1, 8]], [[3, 3, 8, 7], [2, 3, 7, 3], [2, 3, 7, 2]], [[5, 5, 8, 2], [5, 4, 6, 2], [5, 4, 5, 2]], [[4, 5, 7, 7], [4, 5, 5, 4], [4, 5, 5, 3]], [[4, 4, 10, 7], [4, 2, 10, 6], [4, 1, 10, 3]], [[2, 3, 8, 6], [2, 3, 7, 4], [1, 2, 4, 3]], [[2, 5, 6, 6], [1, 4, 6, 2], [1, 4, 5, 2]], [[3, 5, 1, 7], [2, 3, 1, 5], [2, 1, 1, 4]], [[3, 5, 8, 3], [3, 3, 4, 3], [2, 3, 3, 2]], [[1, 5, 3, 5], [1, 4, 3, 3], [1, 3, 1, 1]], [[2, 4, 4, 4], [2, 4, 3, 3], [2, 4, 3, 1]], [[5, 5, 9, 10], [5, 5, 9, 7], [5, 5, 8, 6]], [[2, 4, 5, 9], [2, 3, 3, 9], [1, 3, 1, 9]], [[5, 2, 6, 5], [4, 2, 5, 4], [4, 2, 3, 4]], [[5, 5, 4, 5], [4, 3, 4, 3], [4, 3, 1, 3]], [[2, 4, 10, 5], [2, 4, 9, 4], [2, 3, 8, 4]], [[3, 4, 7, 6], [3, 3, 6, 6], [3, 2, 6, 5]], [[3, 4, 5, 6], [3, 2, 3, 5], [3, 2, 2, 5]], [[3, 4, 9, 7], [1, 4, 5, 5], [1, 4, 1, 1]], [[4, 3, 4, 9], [2, 3, 2, 6], [1, 3, 1, 6]], [[2, 2, 2, 3], [2, 2, 2, 2], [1, 2, 2, 1]], [[4, 4, 9, 7], [3, 3, 5, 6], [2, 3, 4, 6]], [[4, 3, 8, 7], [4, 1, 6, 3], [3, 1, 5, 3]], [[5, 4, 3, 6], [5, 4, 3, 5], [5, 2, 2, 6]], [[2, 3, 6, 5], [2, 1, 6, 4], [2, 1, 6, 3]], [[1, 1, 8, 4], [1, 1, 7, 4], [1, 1, 6, 4]], [[4, 5, 10, 8], [4, 5, 10, 7], [3, 5, 10, 5]], [[3, 2, 7, 7], [3, 2, 4, 7], [3, 2, 2, 7]], [[4, 4, 5, 10], [2, 4, 5, 9], [2, 4, 3, 8]], [[4, 3, 6, 10], [3, 3, 4, 7], [2, 2, 2, 6]], [[3, 4, 3, 6], [2, 4, 2, 5], [2, 4, 2, 4]], [[1, 2, 3, 2], [1, 2, 3, 1], [1, 2, 2, 1]], [[2, 4, 9, 4], [2, 3, 7, 4], [1, 3, 7, 4]], [[1, 3, 8, 2], [1, 3, 6, 1], [1, 2, 6, 1]], [[2, 3, 9, 3], [2, 2, 7, 3], [2, 2, 7, 2]], [[3, 4, 8, 3], [2, 4, 8, 3], [2, 4, 8, 2]], [[5, 3, 7, 4], [3, 3, 6, 3], [2, 3, 6, 3]], [[2, 2, 8, 10], [1, 2, 5, 8], [1, 1, 2, 7]], [[4, 1, 6, 4], [4, 1, 4, 3], [4, 1, 3, 3]], [[4, 4, 4, 9], [2, 2, 4, 8], [2, 2, 4, 7]], [[1, 2, 4, 4], [1, 2, 3, 3], [1, 1, 3, 2]], [[4, 2, 9, 7], [4, 2, 8, 6], [3, 2, 6, 6]], [[2, 5, 6, 5], [1, 2, 3, 4], [1, 2, 3, 3]], [[4, 3, 5, 3], [4, 2, 5, 3], [4, 1, 5, 3]], [[3, 2, 8, 7], [3, 2, 6, 6], [3, 2, 5, 5]], [[2, 3, 3, 8], [1, 2, 3, 7], [1, 1, 1, 6]], [[4, 3, 10, 1], [2, 3, 4, 1], [2, 1, 4, 1]], [[5, 1, 10, 8], [2, 1, 8, 7], [2, 1, 5, 4]], [[3, 2, 4, 1], [2, 2, 3, 1], [2, 1, 3, 1]], [[3, 3, 4, 1], [2, 3, 4, 1], [2, 2, 4, 1]], [[4, 3, 9, 9], [4, 2, 6, 7], [4, 2, 4, 6]], [[3, 3, 1, 1], [2, 3, 1, 1], [1, 3, 1, 1]], [[4, 1, 3, 8], [2, 1, 2, 6], [2, 1, 2, 5]], [[3, 5, 9, 7], [2, 4, 9, 4], [2, 4, 9, 3]], [[5, 3, 5, 6], [3, 3, 4, 6], [3, 2, 4, 6]], [[4, 4, 2, 3], [3, 4, 1, 2], [3, 4, 1, 1]], [[2, 3, 6, 6], [2, 2, 5, 6], [1, 1, 5, 6]], [[5, 5, 6, 4], [4, 4, 5, 4], [3, 3, 4, 2]], [[4, 3, 8, 6], [4, 3, 4, 6], [3, 3, 3, 2]], [[4, 5, 10, 6], [3, 3, 8, 4], [3, 1, 8, 4]], [[5, 3, 8, 9], [3, 3, 8, 9], [3, 3, 8, 8]], [[2, 5, 1, 4], [1, 3, 1, 2], [1, 3, 1, 1]], [[1, 4, 3, 7], [1, 3, 2, 7], [1, 3, 2, 1]], [[2, 3, 8, 3], [1, 2, 7, 3], [1, 2, 6, 3]], [[4, 4, 4, 3], [3, 3, 3, 3], [2, 2, 2, 1]], [[3, 2, 5, 7], [3, 2, 4, 5], [2, 2, 4, 5]], [[4, 1, 7, 10], [3, 1, 7, 4], [3, 1, 5, 4]], [[2, 1, 5, 4], [2, 1, 2, 4], [2, 1, 1, 4]], [[0, 0, 0, 0]]]
